NAME : arbol1
COMMENT : (Augerat et al, No of trucks: 5, Optimal value: 672)
TYPE : CVRP
DIMENSION : 17
EDGE_WEIGHT_TYPE : EUC_2D 
CAPACITY : 100
NODE_COORD_SECTION 
 1 90 90
 2 80 80
 3 80 70
 4 80 60
 5 80 50
 6 80 40
 7 80 30
 8 80 20
 9 80 10
 10 100 80
 11 100 70
 12 100 60
 13 100 50
 14 100 40
 15 100 30
 16 100 20
 17 100 10
DEMAND_SECTION 
1 0 
2 50 
3 55
4 60
5 65
6 70
7 75
8 80 
9 85 
10 50 
11 45
12 40
13 35
14 30
15 25
16 20
17 15
DEPOT_SECTION 
 1  
 -1  
EOF 
